NAME : XML100_3136_12
DIMENSION : 101
NB_CLUSTERS : 38
CLUSTERING_ALG : KMeans
CLUSTERING_PARAMS : k(46)
CLUSTERS
1 0
2 56 76
3 58 68
4 24 57
5 45 61 73
6 5 26 33
7 93 95
8 35 40 63 69 82 99
9 91 94
10 85 87
11 22 29
12 19 65 75
13 80 81
14 10 55 67 96
15 9 41
16 46 70
17 17 23
18 13 27 52
19 20 100
20 2 66
21 15 16 30 39
22 18 25 38 50
23 37 54 62
24 71 72
25 8 34 59
26 42 44
27 47 77 78
28 11 53
29 4 43 79 89 90
30 7 64 83
31 1 12 31
32 21 48 49 86
33 6 84 97
34 51 98
35 74 88
36 14 36 60
37 3 92
38 28 32
EOF